# LJ Argon

# Units and atom style
units		real
atom_style	atomic

# Needs to be here to get atom order correct with gather and scatter
atom_modify     map array sort 0 0.0
 
# Read
read_data	in.dat

# Pair info
pair_style lj/smooth/linear 8.5125
pair_coeff * * 0.23806692161 3.405

# Neighbor list
neighbor	2.5 bin
neigh_modify	every 2 delay 0 check yes

# Integrator and initialization
fix 1           all nve
run             0

